results_rootrelaxation/bin012_060_013.srr.sol
solution status: optimal solution found
objective value:                     1.73551637279597
_var474_                             0.21712846347607 	(obj:0)
_var708_                            0.211586901763225 	(obj:0)
_var709_                            0.211586901763225 	(obj:0)
_var723_                           0.0755667506297236 	(obj:0)
_var729_                            0.538035264483628 	(obj:0)
_var745_                            0.104282115869017 	(obj:0)
_var746_                            0.614105793450881 	(obj:0)
_var747_                           0.0795969773299742 	(obj:0)
_var759_                            0.237783375314862 	(obj:1)
_var771_                           0.0433249370277078 	(obj:0)
_var776_                            0.098740554156171 	(obj:0)
_var781_                            0.429219143576826 	(obj:0)
_var784_                           0.0327455919395473 	(obj:1)
_var797_                            0.286146095717882 	(obj:0)
_var813_                            0.434760705289672 	(obj:0)
_var816_                             0.46146095717884 	(obj:0)
_var819_                            0.345088161209069 	(obj:0)
_var822_                            0.411586901763224 	(obj:0)
_var824_                           0.0609571788413114 	(obj:0)
_var828_                           0.0423173803526446 	(obj:0)
_var835_                           0.0322418136020148 	(obj:0)
_var836_                            0.332997481108312 	(obj:0)
_var837_                            0.262468513853905 	(obj:0)
_var839_                            0.142065491183879 	(obj:1)
_var840_                            0.205037783375313 	(obj:0)
_var844_                           0.0508816120906777 	(obj:1)
_var848_                            0.137531486146095 	(obj:1)
_var849_                           0.0574307304785903 	(obj:1)
_var851_                             0.25088161209068 	(obj:0)
_var856_                           0.0166246851385394 	(obj:1)
_var857_                            0.153652392947103 	(obj:0)
_var859_                            0.115869017632242 	(obj:0)
_var861_                            0.244836272040302 	(obj:0)
_var862_                            0.151133501259445 	(obj:0)
_var863_                           0.0146095717884148 	(obj:0)
_var868_                           0.0549118387909304 	(obj:0)
_var871_                           0.0327455919395473 	(obj:0)
_var873_                            0.262468513853905 	(obj:0)
_var874_                            0.174811083123426 	(obj:1)
_var880_                            0.205037783375314 	(obj:1)
_var881_                             0.14861460957179 	(obj:0)
_var883_                            0.205037783375314 	(obj:0)
_var885_                            0.357682619647357 	(obj:1)
_var887_                           0.0639798488664996 	(obj:0)
_var888_                           0.0957178841309831 	(obj:0)
_var889_                            0.166750629722921 	(obj:0)
_var893_                             0.38639798488665 	(obj:0)
_var899_                           0.0448362720403034 	(obj:0)
_var901_                            0.142065491183879 	(obj:0)
_var902_                            0.307808564231738 	(obj:0)
_var903_                           0.0428211586901762 	(obj:1)
_var905_                            0.174307304785894 	(obj:0)
_var906_                            0.119899244332494 	(obj:0)
_var907_                            0.127959697732997 	(obj:1)
_var908_                          0.00856423173803677 	(obj:0)
_var909_                          0.000503778337530958 	(obj:0)
_var910_                             0.11889168765743 	(obj:0)
_var911_                            0.270025188916877 	(obj:0)
_var914_                          0.00705289672544301 	(obj:0)
_var915_                            0.125944584382871 	(obj:0)
_var916_                           0.0428211586901762 	(obj:0)
_var917_                           0.0559193954659938 	(obj:0)
_var920_                           0.0206549118387912 	(obj:1)
_var922_                            0.131486146095718 	(obj:1)
