results_rootrelaxation/bin012_060_013.srr.log
SCIP version 8.0.3.5 [precision: 8 byte] [memory: block] [mode: optimized] [LP solver: Soplex 6.0.1.3] [GitHash: 438792519e]
Copyright (c) 2002-2023 Zuse Institute Berlin (ZIB)

External libraries: 
  Readline 8.1         GNU library for command line editing (gnu.org/s/readline)
  Soplex 6.0.1.3       Linear Programming Solver developed at Zuse Institute Berlin (soplex.zib.de) [GitHash: 713be0fe]
  CppAD 20180000.0     Algorithmic Differentiation of C++ algorithms developed by B. Bell (github.com/coin-or/CppAD)
  ZLIB 1.2.11          General purpose compression library by J. Gailly and M. Adler (zlib.net)
  bliss 0.77           Computing Graph Automorphism Groups by T. Junttila and P. Kaski (www.tcs.hut.fi/Software/bliss/)

user parameter file <scip.set> not found - using default parameters

srr/relaxation = TRUE

read problem <instances/bin012_060_013.srr>
============

Original problem: 
original problem has 0 variables (0 bin, 0 int, 0 impl, 0 cont) and 77 constraints

presolving:
presolving (1 rounds: 1 fast, 1 medium, 1 exhaustive):
 0 deleted vars, 0 deleted constraints, 0 added constraints, 0 tightened bounds, 0 added holes, 0 changed sides, 0 changed coefficients
 0 implications, 0 cliques
presolved problem has 0 variables (0 bin, 0 int, 0 impl, 0 cont) and 77 constraints
     77 constraints of type <linear>
Presolving Time: 0.00

 time | node  | left  |LP iter|LP it/n|mem/heur|mdpt |vars |cons |rows |cuts |sepa|confs|strbr|  dualbound   | primalbound  |  gap   | compl. 
  0.0s|     1 |     0 |     1 |     - |   710k |   0 |   1 |  77 |  77 |   0 |  0 |   0 |   0 |      --      |      --      |    Inf | unknown
r 0.1s|     1 |     0 |  1428 |     - |simplero|   0 | 703 |  77 |  77 |   0 |  0 |   0 |   0 |      --      | 1.917422e+01 |    Inf | unknown
r 0.1s|     1 |     0 |  1490 |     - |simplero|   0 | 714 |  77 |  77 |   0 |  0 |   0 |   0 |      --      | 1.648976e+01 |    Inf | unknown
r 0.1s|     1 |     0 |  1539 |     - |simplero|   0 | 725 |  77 |  77 |   0 |  0 |   0 |   0 |      --      | 1.533953e+01 |    Inf | unknown
r 0.1s|     1 |     0 |  1599 |     - |simplero|   0 | 736 |  77 |  77 |   0 |  0 |   0 |   0 |      --      | 1.356272e+01 |    Inf | unknown
r 0.1s|     1 |     0 |  1682 |     - |simplero|   0 | 747 |  77 |  77 |   0 |  0 |   0 |   0 |      --      | 1.117839e+01 |    Inf | unknown
r 0.1s|     1 |     0 |  1724 |     - |simplero|   0 | 758 |  77 |  77 |   0 |  0 |   0 |   0 |      --      | 9.708450e+00 |    Inf | unknown
r 0.1s|     1 |     0 |  1734 |     - |simplero|   0 | 758 |  77 |  77 |   0 |  0 |   0 |   0 |      --      | 9.637935e+00 |    Inf | unknown
r 0.1s|     1 |     0 |  1736 |     - |simplero|   0 | 758 |  77 |  77 |   0 |  0 |   0 |   0 |      --      | 9.634972e+00 |    Inf | unknown
r 0.1s|     1 |     0 |  1782 |     - |simplero|   0 | 769 |  77 |  77 |   0 |  0 |   0 |   0 |      --      | 8.036580e+00 |    Inf | unknown
r 0.1s|     1 |     0 |  1793 |     - |simplero|   0 | 769 |  77 |  77 |   0 |  0 |   0 |   0 |      --      | 7.950525e+00 |    Inf | unknown
r 0.1s|     1 |     0 |  1796 |     - |simplero|   0 | 769 |  77 |  77 |   0 |  0 |   0 |   0 |      --      | 7.948170e+00 |    Inf | unknown
r 0.1s|     1 |     0 |  1819 |     - |simplero|   0 | 780 |  77 |  77 |   0 |  0 |   0 |   0 |      --      | 7.346158e+00 |    Inf | unknown
r 0.1s|     1 |     0 |  1834 |     - |simplero|   0 | 780 |  77 |  77 |   0 |  0 |   0 |   0 |      --      | 7.169935e+00 |    Inf | unknown
r 0.1s|     1 |     0 |  1843 |     - |simplero|   0 | 780 |  77 |  77 |   0 |  0 |   0 |   0 |      --      | 7.114808e+00 |    Inf | unknown
 time | node  | left  |LP iter|LP it/n|mem/heur|mdpt |vars |cons |rows |cuts |sepa|confs|strbr|  dualbound   | primalbound  |  gap   | compl. 
r 0.1s|     1 |     0 |  1874 |     - |simplero|   0 | 791 |  77 |  77 |   0 |  0 |   0 |   0 |      --      | 6.165402e+00 |    Inf | unknown
r 0.1s|     1 |     0 |  1900 |     - |simplero|   0 | 791 |  77 |  77 |   0 |  0 |   0 |   0 |      --      | 5.807519e+00 |    Inf | unknown
r 0.1s|     1 |     0 |  1952 |     - |simplero|   0 | 802 |  77 |  77 |   0 |  0 |   0 |   0 |      --      | 4.964496e+00 |    Inf | unknown
r 0.1s|     1 |     0 |  1961 |     - |simplero|   0 | 802 |  77 |  77 |   0 |  0 |   0 |   0 |      --      | 4.949406e+00 |    Inf | unknown
r 0.1s|     1 |     0 |  1993 |     - |simplero|   0 | 813 |  77 |  77 |   0 |  0 |   0 |   0 |      --      | 4.351231e+00 |    Inf | unknown
r 0.1s|     1 |     0 |  2000 |     - |simplero|   0 | 813 |  77 |  77 |   0 |  0 |   0 |   0 |      --      | 4.320286e+00 |    Inf | unknown
r 0.1s|     1 |     0 |  2004 |     - |simplero|   0 | 813 |  77 |  77 |   0 |  0 |   0 |   0 |      --      | 4.317789e+00 |    Inf | unknown
r 0.1s|     1 |     0 |  2051 |     - |simplero|   0 | 824 |  77 |  77 |   0 |  0 |   0 |   0 |      --      | 3.761098e+00 |    Inf | unknown
r 0.1s|     1 |     0 |  2060 |     - |simplero|   0 | 824 |  77 |  77 |   0 |  0 |   0 |   0 |      --      | 3.742223e+00 |    Inf | unknown
r 0.1s|     1 |     0 |  2066 |     - |simplero|   0 | 824 |  77 |  77 |   0 |  0 |   0 |   0 |      --      | 3.735186e+00 |    Inf | unknown
r 0.1s|     1 |     0 |  2102 |     - |simplero|   0 | 835 |  77 |  77 |   0 |  0 |   0 |   0 |      --      | 3.429400e+00 |    Inf | unknown
r 0.1s|     1 |     0 |  2112 |     - |simplero|   0 | 835 |  77 |  77 |   0 |  0 |   0 |   0 |      --      | 3.406951e+00 |    Inf | unknown
r 0.1s|     1 |     0 |  2148 |     - |simplero|   0 | 846 |  77 |  77 |   0 |  0 |   0 |   0 |      --      | 2.939666e+00 |    Inf | unknown
r 0.1s|     1 |     0 |  2152 |     - |simplero|   0 | 846 |  77 |  77 |   0 |  0 |   0 |   0 |      --      | 2.935608e+00 |    Inf | unknown
r 0.1s|     1 |     0 |  2174 |     - |simplero|   0 | 857 |  77 |  77 |   0 |  0 |   0 |   0 |      --      | 2.704508e+00 |    Inf | unknown
 time | node  | left  |LP iter|LP it/n|mem/heur|mdpt |vars |cons |rows |cuts |sepa|confs|strbr|  dualbound   | primalbound  |  gap   | compl. 
  0.1s|     1 |     0 |  2179 |     - |  4172k |   0 | 857 |  77 |  77 |   0 |  0 |   0 |   0 |      --      | 2.704508e+00 |    Inf | unknown
r 0.1s|     1 |     0 |  2179 |     - |simplero|   0 | 857 |  77 |  77 |   0 |  0 |   0 |   0 |      --      | 2.694475e+00 |    Inf | unknown
r 0.1s|     1 |     0 |  2199 |     - |simplero|   0 | 868 |  77 |  77 |   0 |  0 |   0 |   0 |      --      | 2.402413e+00 |    Inf | unknown
r 0.1s|     1 |     0 |  2203 |     - |simplero|   0 | 868 |  77 |  77 |   0 |  0 |   0 |   0 |      --      | 2.400387e+00 |    Inf | unknown
r 0.1s|     1 |     0 |  2225 |     - |simplero|   0 | 877 |  77 |  77 |   0 |  0 |   0 |   0 |      --      | 2.218606e+00 |    Inf | unknown
r 0.1s|     1 |     0 |  2268 |     - |simplero|   0 | 887 |  77 |  77 |   0 |  0 |   0 |   0 |      --      | 2.030266e+00 |    Inf | unknown
r 0.1s|     1 |     0 |  2272 |     - |simplero|   0 | 887 |  77 |  77 |   0 |  0 |   0 |   0 |      --      | 2.029773e+00 |    Inf | unknown
r 0.1s|     1 |     0 |  2301 |     - |simplero|   0 | 896 |  77 |  77 |   0 |  0 |   0 |   0 |      --      | 1.905233e+00 |    Inf | unknown
r 0.1s|     1 |     0 |  2307 |     - |simplero|   0 | 896 |  77 |  77 |   0 |  0 |   0 |   0 |      --      | 1.901609e+00 |    Inf | unknown
r 0.1s|     1 |     0 |  2322 |     - |simplero|   0 | 906 |  77 |  77 |   0 |  0 |   0 |   0 |      --      | 1.860670e+00 |    Inf | unknown
r 0.1s|     1 |     0 |  2349 |     - |simplero|   0 | 912 |  77 |  77 |   0 |  0 |   0 |   0 |      --      | 1.778723e+00 |    Inf | unknown
r 0.1s|     1 |     0 |  2371 |     - |simplero|   0 | 917 |  77 |  77 |   0 |  0 |   0 |   0 |      --      | 1.743676e+00 |    Inf | unknown
r 0.1s|     1 |     0 |  2382 |     - |simplero|   0 | 921 |  77 |  77 |   0 |  0 |   0 |   0 |      --      | 1.737663e+00 |    Inf | unknown
r 0.1s|     1 |     0 |  2387 |     - |simplero|   0 | 923 |  77 |  77 |   0 |  0 |   0 |   0 |      --      | 1.735516e+00 |    Inf | unknown
  0.1s|     1 |     0 |  2387 |     - |  4419k |   0 | 923 |  77 |  77 |   0 |  0 |   0 |   0 | 1.735516e+00 | 1.735516e+00 |   0.00%| unknown
 time | node  | left  |LP iter|LP it/n|mem/heur|mdpt |vars |cons |rows |cuts |sepa|confs|strbr|  dualbound   | primalbound  |  gap   | compl. 
  0.1s|     1 |     0 |  2387 |     - |  4419k |   0 | 923 |  77 |  77 |   0 |  0 |   0 |   0 | 1.735516e+00 | 1.735516e+00 |   0.00%| unknown

SCIP Status        : problem is solved [optimal solution found]
Solving Time (sec) : 0.11
Solving Nodes      : 1
Primal Bound       : +1.73551637279597e+00 (42 solutions)
Dual Bound         : +1.73551637279597e+00
Gap                : 0.00 %

written transformed problem to file <results_rootrelaxation/bin012_060_013.srr.lp>
written transformed problem to file <results_rootrelaxation/bin012_060_013.srr.cip>


SCIP version 8.0.3.5 [precision: 8 byte] [memory: block] [mode: optimized] [LP solver: Soplex 6.0.1.3] [GitHash: 438792519e]
Copyright (c) 2002-2023 Zuse Institute Berlin (ZIB)

External libraries: 
  Readline 8.1         GNU library for command line editing (gnu.org/s/readline)
  Soplex 6.0.1.3       Linear Programming Solver developed at Zuse Institute Berlin (soplex.zib.de) [GitHash: 713be0fe]
  CppAD 20180000.0     Algorithmic Differentiation of C++ algorithms developed by B. Bell (github.com/coin-or/CppAD)
  ZLIB 1.2.11          General purpose compression library by J. Gailly and M. Adler (zlib.net)
  bliss 0.77           Computing Graph Automorphism Groups by T. Junttila and P. Kaski (www.tcs.hut.fi/Software/bliss/)

user parameter file <scip.set> not found - using default parameters

srr/relaxation = TRUE

read problem <instances/bin012_060_013.srr>
============

Original problem: 
original problem has 0 variables (0 bin, 0 int, 0 impl, 0 cont) and 77 constraints

presolving:
presolving (1 rounds: 1 fast, 1 medium, 1 exhaustive):
 0 deleted vars, 0 deleted constraints, 0 added constraints, 0 tightened bounds, 0 added holes, 0 changed sides, 0 changed coefficients
 0 implications, 0 cliques
presolved problem has 0 variables (0 bin, 0 int, 0 impl, 0 cont) and 77 constraints
     77 constraints of type <linear>
Presolving Time: 0.00

 time | node  | left  |LP iter|LP it/n|mem/heur|mdpt |vars |cons |rows |cuts |sepa|confs|strbr|  dualbound   | primalbound  |  gap   | compl. 
  0.0s|     1 |     0 |     1 |     - |   710k |   0 |   1 |  77 |  77 |   0 |  0 |   0 |   0 |      --      |      --      |    Inf | unknown
r 0.1s|     1 |     0 |  1428 |     - |simplero|   0 | 703 |  77 |  77 |   0 |  0 |   0 |   0 |      --      | 1.917422e+01 |    Inf | unknown
r 0.1s|     1 |     0 |  1490 |     - |simplero|   0 | 714 |  77 |  77 |   0 |  0 |   0 |   0 |      --      | 1.648976e+01 |    Inf | unknown
r 0.1s|     1 |     0 |  1539 |     - |simplero|   0 | 725 |  77 |  77 |   0 |  0 |   0 |   0 |      --      | 1.533953e+01 |    Inf | unknown
r 0.1s|     1 |     0 |  1599 |     - |simplero|   0 | 736 |  77 |  77 |   0 |  0 |   0 |   0 |      --      | 1.356272e+01 |    Inf | unknown
r 0.1s|     1 |     0 |  1682 |     - |simplero|   0 | 747 |  77 |  77 |   0 |  0 |   0 |   0 |      --      | 1.117839e+01 |    Inf | unknown
r 0.1s|     1 |     0 |  1724 |     - |simplero|   0 | 758 |  77 |  77 |   0 |  0 |   0 |   0 |      --      | 9.708450e+00 |    Inf | unknown
r 0.1s|     1 |     0 |  1734 |     - |simplero|   0 | 758 |  77 |  77 |   0 |  0 |   0 |   0 |      --      | 9.637935e+00 |    Inf | unknown
r 0.1s|     1 |     0 |  1736 |     - |simplero|   0 | 758 |  77 |  77 |   0 |  0 |   0 |   0 |      --      | 9.634972e+00 |    Inf | unknown
r 0.1s|     1 |     0 |  1782 |     - |simplero|   0 | 769 |  77 |  77 |   0 |  0 |   0 |   0 |      --      | 8.036580e+00 |    Inf | unknown
r 0.1s|     1 |     0 |  1793 |     - |simplero|   0 | 769 |  77 |  77 |   0 |  0 |   0 |   0 |      --      | 7.950525e+00 |    Inf | unknown
r 0.1s|     1 |     0 |  1796 |     - |simplero|   0 | 769 |  77 |  77 |   0 |  0 |   0 |   0 |      --      | 7.948170e+00 |    Inf | unknown
r 0.1s|     1 |     0 |  1819 |     - |simplero|   0 | 780 |  77 |  77 |   0 |  0 |   0 |   0 |      --      | 7.346158e+00 |    Inf | unknown
r 0.1s|     1 |     0 |  1834 |     - |simplero|   0 | 780 |  77 |  77 |   0 |  0 |   0 |   0 |      --      | 7.169935e+00 |    Inf | unknown
r 0.1s|     1 |     0 |  1843 |     - |simplero|   0 | 780 |  77 |  77 |   0 |  0 |   0 |   0 |      --      | 7.114808e+00 |    Inf | unknown
 time | node  | left  |LP iter|LP it/n|mem/heur|mdpt |vars |cons |rows |cuts |sepa|confs|strbr|  dualbound   | primalbound  |  gap   | compl. 
r 0.1s|     1 |     0 |  1874 |     - |simplero|   0 | 791 |  77 |  77 |   0 |  0 |   0 |   0 |      --      | 6.165402e+00 |    Inf | unknown
r 0.1s|     1 |     0 |  1900 |     - |simplero|   0 | 791 |  77 |  77 |   0 |  0 |   0 |   0 |      --      | 5.807519e+00 |    Inf | unknown
r 0.1s|     1 |     0 |  1952 |     - |simplero|   0 | 802 |  77 |  77 |   0 |  0 |   0 |   0 |      --      | 4.964496e+00 |    Inf | unknown
r 0.1s|     1 |     0 |  1961 |     - |simplero|   0 | 802 |  77 |  77 |   0 |  0 |   0 |   0 |      --      | 4.949406e+00 |    Inf | unknown
r 0.1s|     1 |     0 |  1993 |     - |simplero|   0 | 813 |  77 |  77 |   0 |  0 |   0 |   0 |      --      | 4.351231e+00 |    Inf | unknown
r 0.1s|     1 |     0 |  2000 |     - |simplero|   0 | 813 |  77 |  77 |   0 |  0 |   0 |   0 |      --      | 4.320286e+00 |    Inf | unknown
r 0.1s|     1 |     0 |  2004 |     - |simplero|   0 | 813 |  77 |  77 |   0 |  0 |   0 |   0 |      --      | 4.317789e+00 |    Inf | unknown
r 0.1s|     1 |     0 |  2051 |     - |simplero|   0 | 824 |  77 |  77 |   0 |  0 |   0 |   0 |      --      | 3.761098e+00 |    Inf | unknown
r 0.1s|     1 |     0 |  2060 |     - |simplero|   0 | 824 |  77 |  77 |   0 |  0 |   0 |   0 |      --      | 3.742223e+00 |    Inf | unknown
r 0.1s|     1 |     0 |  2066 |     - |simplero|   0 | 824 |  77 |  77 |   0 |  0 |   0 |   0 |      --      | 3.735186e+00 |    Inf | unknown
r 0.1s|     1 |     0 |  2102 |     - |simplero|   0 | 835 |  77 |  77 |   0 |  0 |   0 |   0 |      --      | 3.429400e+00 |    Inf | unknown
r 0.1s|     1 |     0 |  2112 |     - |simplero|   0 | 835 |  77 |  77 |   0 |  0 |   0 |   0 |      --      | 3.406951e+00 |    Inf | unknown
r 0.1s|     1 |     0 |  2148 |     - |simplero|   0 | 846 |  77 |  77 |   0 |  0 |   0 |   0 |      --      | 2.939666e+00 |    Inf | unknown
r 0.1s|     1 |     0 |  2152 |     - |simplero|   0 | 846 |  77 |  77 |   0 |  0 |   0 |   0 |      --      | 2.935608e+00 |    Inf | unknown
r 0.1s|     1 |     0 |  2174 |     - |simplero|   0 | 857 |  77 |  77 |   0 |  0 |   0 |   0 |      --      | 2.704508e+00 |    Inf | unknown
 time | node  | left  |LP iter|LP it/n|mem/heur|mdpt |vars |cons |rows |cuts |sepa|confs|strbr|  dualbound   | primalbound  |  gap   | compl. 
  0.1s|     1 |     0 |  2179 |     - |  4172k |   0 | 857 |  77 |  77 |   0 |  0 |   0 |   0 |      --      | 2.704508e+00 |    Inf | unknown
r 0.1s|     1 |     0 |  2179 |     - |simplero|   0 | 857 |  77 |  77 |   0 |  0 |   0 |   0 |      --      | 2.694475e+00 |    Inf | unknown
r 0.1s|     1 |     0 |  2199 |     - |simplero|   0 | 868 |  77 |  77 |   0 |  0 |   0 |   0 |      --      | 2.402413e+00 |    Inf | unknown
r 0.1s|     1 |     0 |  2203 |     - |simplero|   0 | 868 |  77 |  77 |   0 |  0 |   0 |   0 |      --      | 2.400387e+00 |    Inf | unknown
r 0.1s|     1 |     0 |  2225 |     - |simplero|   0 | 877 |  77 |  77 |   0 |  0 |   0 |   0 |      --      | 2.218606e+00 |    Inf | unknown
r 0.1s|     1 |     0 |  2268 |     - |simplero|   0 | 887 |  77 |  77 |   0 |  0 |   0 |   0 |      --      | 2.030266e+00 |    Inf | unknown
r 0.1s|     1 |     0 |  2272 |     - |simplero|   0 | 887 |  77 |  77 |   0 |  0 |   0 |   0 |      --      | 2.029773e+00 |    Inf | unknown
r 0.1s|     1 |     0 |  2301 |     - |simplero|   0 | 896 |  77 |  77 |   0 |  0 |   0 |   0 |      --      | 1.905233e+00 |    Inf | unknown
r 0.1s|     1 |     0 |  2307 |     - |simplero|   0 | 896 |  77 |  77 |   0 |  0 |   0 |   0 |      --      | 1.901609e+00 |    Inf | unknown
r 0.1s|     1 |     0 |  2322 |     - |simplero|   0 | 906 |  77 |  77 |   0 |  0 |   0 |   0 |      --      | 1.860670e+00 |    Inf | unknown
r 0.1s|     1 |     0 |  2349 |     - |simplero|   0 | 912 |  77 |  77 |   0 |  0 |   0 |   0 |      --      | 1.778723e+00 |    Inf | unknown
r 0.1s|     1 |     0 |  2371 |     - |simplero|   0 | 917 |  77 |  77 |   0 |  0 |   0 |   0 |      --      | 1.743676e+00 |    Inf | unknown
r 0.1s|     1 |     0 |  2382 |     - |simplero|   0 | 921 |  77 |  77 |   0 |  0 |   0 |   0 |      --      | 1.737663e+00 |    Inf | unknown
r 0.1s|     1 |     0 |  2387 |     - |simplero|   0 | 923 |  77 |  77 |   0 |  0 |   0 |   0 |      --      | 1.735516e+00 |    Inf | unknown
  0.1s|     1 |     0 |  2387 |     - |  4419k |   0 | 923 |  77 |  77 |   0 |  0 |   0 |   0 | 1.735516e+00 | 1.735516e+00 |   0.00%| unknown
 time | node  | left  |LP iter|LP it/n|mem/heur|mdpt |vars |cons |rows |cuts |sepa|confs|strbr|  dualbound   | primalbound  |  gap   | compl. 
  0.1s|     1 |     0 |  2387 |     - |  4419k |   0 | 923 |  77 |  77 |   0 |  0 |   0 |   0 | 1.735516e+00 | 1.735516e+00 |   0.00%| unknown

SCIP Status        : problem is solved [optimal solution found]
Solving Time (sec) : 0.10
Solving Nodes      : 1
Primal Bound       : +1.73551637279597e+00 (42 solutions)
Dual Bound         : +1.73551637279597e+00
Gap                : 0.00 %

written transformed problem to file <results_rootrelaxation/bin012_060_013.srr.lp>
written transformed problem to file <results_rootrelaxation/bin012_060_013.srr.cip>

written solution information to file <results_rootrelaxation/bin012_060_013.srr.sol>



